Optimal - objective value 3576.00000000
     18 x_0_19                  1                     222
     30 x_1_10                  1                     -33
     61 x_2_20                  1                       0
     79 x_3_17                  1                       0
     89 x_4_6                   1                     210
    108 x_5_3                   1                       0
    136 x_6_11                  1                       0
    162 x_7_16                  1                       0
    170 x_8_2                   1                     226
    203 x_9_15                  1                    -163
    223 x_10_14                 1                     173
    240 x_11_9                  1                       0
    264 x_12_13                 1                       0
    277 x_13_4                  1                    -343
    299 x_14_5                  1                     191
    316 x_15_1                  1                       0
    356 x_16_21                 1                     -16
    365 x_17_8                  1                       0
    378 x_18_0                  1                       0
    406 x_19_7                  1                       0
    438 x_20_18                 1                       0
    453 x_21_12                 1                       0
    462 u_1                    12                       0
    463 u_2                    19                       0
    464 u_3                    16                       0
    465 u_4       6.99999999999998                       0
    466 u_5                    15                       0
    467 u_6       7.99999999999999                       0
    468 u_7                     2                       0
    469 u_8                    18                       0
    470 u_9       9.99999999999999                       0
    471 u_10                   13                       0
    472 u_11      8.99999999999999                       0
    473 u_12      5.00000000000001                       0
    474 u_13      6.00000000000001                       0
    475 u_14                   14                       0
    476 u_15                   11                       0
    477 u_16                    3                       0
    478 u_17                   17                       0
    479 u_18                   21                       0
    480 u_19                    1                       0
    481 u_20                   20                       0
    482 u_21                    4                       0
